Set parameter TokenServer to value "hpc-licenses.hpcc.usc.edu"
Set parameter TimeLimit to value 3600
Gurobi Optimizer version 9.5.1 build v9.5.1rc2 (linux64)
Thread count: 20 physical cores, 20 logical processors, using up to 20 threads
Optimize a model with 6007 rows, 4529 columns and 24534 nonzeros
Model fingerprint: 0xf2186765
Variable types: 4506 continuous, 23 integer (23 binary)
Coefficient statistics:
  Matrix range     [1e+00, 1e+00]
  Objective range  [2e-04, 1e+00]
  Bounds range     [1e+00, 1e+00]
  RHS range        [1e+00, 2e+02]
Presolve removed 1520 rows and 1515 columns
Presolve time: 0.05s
Presolved: 4487 rows, 3014 columns, 21975 nonzeros
Variable types: 2994 continuous, 20 integer (20 binary)
Found heuristic solution: objective 264.8182473

Root relaxation: objective 2.758340e+02, 2843 iterations, 0.09 seconds (0.13 work units)

    Nodes    |    Current Node    |     Objective Bounds      |     Work
 Expl Unexpl |  Obj  Depth IntInf | Incumbent    BestBd   Gap | It/Node Time

     0     0  275.83401    0    2  264.81825  275.83401  4.16%     -    0s
     0     0  275.75451    0    2  264.81825  275.75451  4.13%     -    0s
     0     0  275.71835    0    2  264.81825  275.71835  4.12%     -    0s
H    0     0                     265.5081669  274.87820  3.53%     -    0s
     0     0  274.87820    0    3  265.50817  274.87820  3.53%     -    0s
     0     0  274.77236    0    3  265.50817  274.77236  3.49%     -    0s
     0     0  274.73532    0    3  265.50817  274.73532  3.48%     -    0s
     0     0  274.68191    0    3  265.50817  274.68191  3.46%     -    0s
     0     0  274.59355    0    3  265.50817  274.59355  3.42%     -    0s
     0     0  274.55876    0    3  265.50817  274.55876  3.41%     -    0s
     0     0  274.52156    0    3  265.50817  274.52156  3.39%     -    0s
     0     0  274.48031    0    3  265.50817  274.48031  3.38%     -    0s
     0     0  274.44568    0    3  265.50817  274.44568  3.37%     -    0s
     0     0  274.43338    0    3  265.50817  274.43338  3.36%     -    0s
H    0     0                     274.2001492  274.24329  0.02%     -    0s
     0     0  274.20015    0    3  274.20015  274.20015  0.00%     -    0s

Cutting planes:
  Gomory: 4
  MIR: 211
  Flow cover: 1
  RLT: 9
  Relax-and-lift: 2

Explored 1 nodes (4521 simplex iterations) in 0.82 seconds (0.80 work units)
Thread count was 20 (of 20 available processors)

Solution count 3: 274.2 265.508 264.818 

Optimal solution found (tolerance 1.00e-04)
Best objective 2.742001492448e+02, best bound 2.742001492448e+02, gap 0.0000%



#########node  1
V1.6
#########node  2
0.00510204081632653,0.9948979591836735
#########node  3
1.0,0.0


Total Solving Time 1.2053568363189697
obj value 274.2001492447887
Policy Regret train (Sum) 7.333573780976075
Best Treatment Found train (%) 64.2
treatment classification acc train (%) 31.0
Policy Regret test (Sum) 28.73848887990478
Best Treatment Found test (%) 83.74000000000001
treatment classification acc test (%) 30.29
